p wcnf 88 295 11
1 -79 0
1 -80 0
1 -81 0
1 -82 0
1 -83 0
1 -84 0
1 -85 0
1 -86 0
1 -87 0
1 -88 0
11 1 2 0
11 -1 -2 0
11 3 4 0
11 -3 -4 0
11 5 6 0
11 -5 -6 0
11 -1 7 -10 0
11 -1 -7 10 0
11 -3 8 -11 0
11 -3 -8 11 0
11 -5 9 -12 0
11 -5 -9 12 0
11 -1 10 -13 0
11 -3 11 -14 0
11 -5 12 -15 0
11 -1 13 -16 0
11 -1 -13 16 0
11 -3 14 -17 0
11 -3 -14 17 0
11 -5 15 -18 0
11 -5 -15 18 0
11 -1 16 -19 0
11 -3 17 -20 0
11 -5 18 -21 0
11 -1 19 -22 0
11 -1 -19 22 0
11 -3 20 -23 0
11 -3 -20 23 0
11 -5 21 -24 0
11 -5 -21 24 0
11 -2 7 -10 0
11 -4 8 -11 0
11 -6 9 -12 0
11 -2 10 -19 0
11 -4 11 -20 0
11 -6 12 -21 0
11 -2 19 -22 0
11 -4 20 -23 0
11 -6 21 -24 0
11 -2 22 -13 0
11 -4 23 -14 0
11 -6 24 -15 0
11 -2 13 -16 0
11 -4 14 -17 0
11 -6 15 -18 0
11 -25 8 7 0
11 -29 11 10 0
11 -33 14 13 0
11 -37 17 16 0
11 -41 20 19 0
11 -45 23 22 0
11 -26 7 0
11 -26 -8 0
11 -30 10 0
11 -30 -11 0
11 -34 13 0
11 -34 -14 0
11 -38 16 0
11 -38 -17 0
11 -42 19 0
11 -42 -20 0
11 -46 22 0
11 -46 -23 0
11 -27 9 0
11 -27 -7 0
11 -31 12 0
11 -31 -10 0
11 -35 15 0
11 -35 -13 0
11 -39 18 0
11 -39 -16 0
11 -43 21 0
11 -43 -19 0
11 -47 24 0
11 -47 -22 0
11 -28 -9 -7 0
11 -32 -12 -10 0
11 -36 -15 -13 0
11 -40 -18 -16 0
11 -44 -21 -19 0
11 -48 -24 -22 0
11 25 -8 -7 0
11 26 -7 8 0
11 27 -9 7 0
11 28 9 7 0
11 29 -11 -10 0
11 30 -10 11 0
11 31 -12 10 0
11 32 12 10 0
11 33 -14 -13 0
11 34 -13 14 0
11 35 -15 13 0
11 36 15 13 0
11 37 -17 -16 0
11 38 -16 17 0
11 39 -18 16 0
11 40 18 16 0
11 41 -20 -19 0
11 42 -19 20 0
11 43 -21 19 0
11 44 21 19 0
11 45 -23 -22 0
11 46 -22 23 0
11 47 -24 22 0
11 48 24 22 0
11 -1 7 0
11 -1 -22 0
11 -2 7 0
11 -2 -16 0
11 -3 8 0
11 -3 -23 0
11 -4 8 0
11 -4 -17 0
11 -5 9 0
11 -5 -24 0
11 -6 9 0
11 -6 -18 0
11 49 -50 0
11 52 -53 0
11 55 -56 0
11 58 -59 0
11 -25 -49 61 0
11 -25 -50 62 0
11 -29 -49 64 0
11 -29 -50 65 0
11 -33 -49 67 0
11 -33 -50 68 0
11 -37 -49 70 0
11 -37 -50 71 0
11 -41 -49 73 0
11 -41 -50 74 0
11 -45 -49 76 0
11 -45 -50 77 0
11 -26 -52 61 0
11 -26 -53 62 0
11 -30 -52 64 0
11 -30 -53 65 0
11 -34 -52 67 0
11 -34 -53 68 0
11 -38 -52 70 0
11 -38 -53 71 0
11 -42 -52 73 0
11 -42 -53 74 0
11 -46 -52 76 0
11 -46 -53 77 0
11 -27 -55 61 0
11 -27 -56 62 0
11 -31 -55 64 0
11 -31 -56 65 0
11 -35 -55 67 0
11 -35 -56 68 0
11 -39 -55 70 0
11 -39 -56 71 0
11 -43 -55 73 0
11 -43 -56 74 0
11 -47 -55 76 0
11 -47 -56 77 0
11 -28 -58 61 0
11 -28 -59 62 0
11 -32 -58 64 0
11 -32 -59 65 0
11 -36 -58 67 0
11 -36 -59 68 0
11 -40 -58 70 0
11 -40 -59 71 0
11 -44 -58 73 0
11 -44 -59 74 0
11 -48 -58 76 0
11 -48 -59 77 0
11 -25 49 -61 0
11 -25 50 -62 0
11 -29 49 -64 0
11 -29 50 -65 0
11 -33 49 -67 0
11 -33 50 -68 0
11 -37 49 -70 0
11 -37 50 -71 0
11 -41 49 -73 0
11 -41 50 -74 0
11 -45 49 -76 0
11 -45 50 -77 0
11 -26 52 -61 0
11 -26 53 -62 0
11 -30 52 -64 0
11 -30 53 -65 0
11 -34 52 -67 0
11 -34 53 -68 0
11 -38 52 -70 0
11 -38 53 -71 0
11 -42 52 -73 0
11 -42 53 -74 0
11 -46 52 -76 0
11 -46 53 -77 0
11 -27 55 -61 0
11 -27 56 -62 0
11 -31 55 -64 0
11 -31 56 -65 0
11 -35 55 -67 0
11 -35 56 -68 0
11 -39 55 -70 0
11 -39 56 -71 0
11 -43 55 -73 0
11 -43 56 -74 0
11 -47 55 -76 0
11 -47 56 -77 0
11 -28 58 -61 0
11 -28 59 -62 0
11 -32 58 -64 0
11 -32 59 -65 0
11 -36 58 -67 0
11 -36 59 -68 0
11 -40 58 -70 0
11 -40 59 -71 0
11 -44 58 -73 0
11 -44 59 -74 0
11 -48 58 -76 0
11 -48 59 -77 0
11 61 0
11 65 0
11 -65 61 0
11 -68 61 64 0
11 -71 61 64 67 0
11 -74 61 64 67 70 0
11 -77 61 64 67 70 73 0
11 62 65 68 71 74 77 0
11 67 70 0
11 70 64 0
11 -68 -71 0
11 -71 -65 0
11 -67 -70 68 71 0
11 -70 -64 71 65 0
11 79 61 64 0
11 79 67 70 0
11 79 73 76 0
11 80 64 67 0
11 81 67 76 0
11 82 67 73 0
11 82 70 76 0
11 83 61 67 0
11 83 64 70 0
11 84 70 73 0
11 85 61 70 0
11 86 64 73 0
11 87 61 73 0
11 87 64 76 0
11 88 61 76 0
11 79 -62 -65 0
11 79 -68 -71 0
11 79 -74 -77 0
11 80 -65 -68 0
11 81 -68 -77 0
11 82 -68 -74 0
11 82 -71 -77 0
11 83 -62 -68 0
11 83 -65 -71 0
11 84 -71 -74 0
11 85 -62 -71 0
11 86 -65 -74 0
11 87 -62 -74 0
11 87 -65 -77 0
11 88 -62 -77 0
11 79 -61 -64 62 65 0
11 79 -67 -70 68 71 0
11 79 -73 -76 74 77 0
11 80 -64 -67 65 68 0
11 81 -67 -76 68 77 0
11 82 -67 -73 68 74 0
11 82 -70 -76 71 77 0
11 83 -61 -67 62 68 0
11 83 -64 -70 65 71 0
11 84 -70 -73 71 74 0
11 85 -61 -70 62 71 0
11 86 -64 -73 65 74 0
11 87 -61 -73 62 74 0
11 87 -64 -76 65 77 0
11 88 -61 -76 62 77 0
11 -80 79 0
11 -81 80 0
11 -82 81 0
11 -83 82 0
11 -84 83 0
11 -85 84 0
11 -86 85 0
11 -87 86 0
11 -88 87 0
